words_hard_train/4817.qaiger
aag 181 19 0 1 162
2
4
8
10
22
24
36
38
50
62
74
222
252
260
268
278
298
318
338
362
6 2 4
12 9 11
14 8 10
16 13 15
18 6 16
20 19 15
26 23 25
28 22 24
30 27 29
32 21 30
34 33 29
40 37 39
42 36 38
44 41 43
46 35 44
48 47 43
52 37 51
54 36 50
56 53 55
58 49 56
60 59 55
64 37 63
66 36 62
68 65 67
70 61 68
72 71 67
76 36 74
78 73 77
80 37 75
82 79 81
84 5 11
86 84 25
88 86 39
90 88 51
92 90 63
94 93 75
96 82 95
98 83 94
100 97 99
102 7 4
104 7 17
106 105 19
108 4 10
110 109 85
112 107 111
114 106 110
116 113 115
118 102 116
120 119 115
122 20 31
124 123 33
126 85 24
128 127 87
130 125 129
132 124 128
134 131 133
136 121 134
138 137 133
140 34 45
142 141 47
144 87 38
146 145 89
148 143 147
150 142 146
152 149 151
154 139 152
156 155 151
158 48 57
160 159 59
162 89 50
164 163 91
166 161 165
168 160 164
170 167 169
172 157 170
174 173 169
176 60 69
178 177 71
180 91 62
182 181 93
184 179 183
186 178 182
188 185 187
190 175 188
192 191 187
194 81 77
196 73 194
198 72 195
200 197 199
202 92 74
204 203 95
206 201 204
208 200 205
210 207 209
212 193 210
214 213 209
216 101 215
218 100 214
220 217 219
224 221 222
226 103 117
228 227 119
230 229 3
232 120 135
234 233 137
236 230 235
238 138 153
240 239 155
242 237 240
244 236 241
246 243 245
248 231 234
250 249 237
254 228 253
256 255 231
258 229 252
262 261 2
264 259 262
266 256 265
270 266 268
272 251 271
274 267 269
276 273 275
280 277 279
282 246 281
284 276 278
286 283 285
288 156 171
290 289 173
292 245 290
294 244 291
296 293 295
300 297 299
302 287 301
304 296 298
306 303 305
308 174 189
310 309 191
312 295 310
314 294 311
316 313 315
320 316 318
322 306 321
324 317 319
326 323 325
328 192 211
330 329 213
332 315 330
334 314 331
336 333 335
340 337 339
342 326 341
344 342 334
346 224 345
348 335 339
350 349 333
352 220 223
354 351 353
356 355 345
358 353 342
360 357 359
362 347 361
i0 1 x2[4]
i1 2 y1[0]
i2 1 x2[5]
i3 2 y1[1]
i4 1 x2[6]
i5 2 y1[2]
i6 1 x2[7]
i7 2 y1[3]
i8 2 y1[4]
i9 2 y1[5]
i10 2 y1[6]
i11 1 x1[7]
i12 1 x1[1]
i13 1 x1[0]
i14 1 x1[2]
i15 1 x1[3]
i16 1 x1[4]
i17 1 x1[5]
i18 1 x1[6]
o0 bv[0]
c
simplified
  >=
    1 x1
    subtract
      add
        >> 4
          1 x2
        2 y1
      2 y1
