words_hard_train/4817.qaiger.qdimacs
p cnf 181 487
a 1 130 4 134 169 11 139 111 18 149 126 159 0
e 2 3 5 6 7 8 9 10 12 13 14 15 16 17 19 20 21 22 23 24 25 26 27 28 29 30 31 32 33 34 35 36 37 38 39 40 41 42 43 44 45 46 47 48 49 50 51 52 53 54 55 56 57 58 59 60 61 62 63 64 65 66 67 68 69 70 71 72 73 74 75 76 77 78 79 80 81 82 83 84 85 86 87 88 89 90 91 92 93 94 95 96 97 98 99 100 101 102 103 104 105 106 107 108 109 110 112 113 114 115 116 117 118 119 120 121 122 123 124 125 127 128 129 131 132 133 135 136 137 138 140 141 142 143 144 145 146 147 148 150 151 152 153 154 155 156 157 158 160 161 162 163 164 165 166 167 168 170 171 172 173 174 175 176 177 178 179 180 181 0
-1 -2 3 0
1 -3 0
2 -3 0
4 5 6 0
-4 -6 0
-5 -6 0
-4 -5 7 0
4 -7 0
5 -7 0
6 7 8 0
-6 -8 0
-7 -8 0
-3 -8 9 0
3 -9 0
8 -9 0
9 7 10 0
-9 -10 0
-7 -10 0
11 12 13 0
-11 -13 0
-12 -13 0
-11 -12 14 0
11 -14 0
12 -14 0
13 14 15 0
-13 -15 0
-14 -15 0
10 -15 16 0
-10 -16 0
15 -16 0
16 14 17 0
-16 -17 0
-14 -17 0
18 19 20 0
-18 -20 0
-19 -20 0
-18 -19 21 0
18 -21 0
19 -21 0
20 21 22 0
-20 -22 0
-21 -22 0
17 -22 23 0
-17 -23 0
22 -23 0
23 21 24 0
-23 -24 0
-21 -24 0
18 25 26 0
-18 -26 0
-25 -26 0
-18 -25 27 0
18 -27 0
25 -27 0
26 27 28 0
-26 -28 0
-27 -28 0
24 -28 29 0
-24 -29 0
28 -29 0
29 27 30 0
-29 -30 0
-27 -30 0
18 31 32 0
-18 -32 0
-31 -32 0
-18 -31 33 0
18 -33 0
31 -33 0
32 33 34 0
-32 -34 0
-33 -34 0
30 -34 35 0
-30 -35 0
34 -35 0
35 33 36 0
-35 -36 0
-33 -36 0
-18 -37 38 0
18 -38 0
37 -38 0
36 38 39 0
-36 -39 0
-38 -39 0
18 37 40 0
-18 -40 0
-37 -40 0
39 40 41 0
-39 -41 0
-40 -41 0
2 5 42 0
-2 -42 0
-5 -42 0
-42 12 43 0
42 -43 0
-12 -43 0
-43 19 44 0
43 -44 0
-19 -44 0
-44 25 45 0
44 -45 0
-25 -45 0
-45 31 46 0
45 -46 0
-31 -46 0
46 37 47 0
-46 -47 0
-37 -47 0
-41 47 48 0
41 -48 0
-47 -48 0
41 -47 49 0
-41 -49 0
47 -49 0
48 49 50 0
-48 -50 0
-49 -50 0
3 -2 51 0
-3 -51 0
2 -51 0
3 8 52 0
-3 -52 0
-8 -52 0
52 9 53 0
-52 -53 0
-9 -53 0
-2 -5 54 0
2 -54 0
5 -54 0
54 42 55 0
-54 -55 0
-42 -55 0
53 55 56 0
-53 -56 0
-55 -56 0
-53 -55 57 0
53 -57 0
55 -57 0
56 57 58 0
-56 -58 0
-57 -58 0
-51 -58 59 0
51 -59 0
58 -59 0
59 57 60 0
-59 -60 0
-57 -60 0
-10 15 61 0
10 -61 0
-15 -61 0
61 16 62 0
-61 -62 0
-16 -62 0
42 -12 63 0
-42 -63 0
12 -63 0
63 43 64 0
-63 -64 0
-43 -64 0
62 64 65 0
-62 -65 0
-64 -65 0
-62 -64 66 0
62 -66 0
64 -66 0
65 66 67 0
-65 -67 0
-66 -67 0
60 -67 68 0
-60 -68 0
67 -68 0
68 66 69 0
-68 -69 0
-66 -69 0
-17 22 70 0
17 -70 0
-22 -70 0
70 23 71 0
-70 -71 0
-23 -71 0
43 -19 72 0
-43 -72 0
19 -72 0
72 44 73 0
-72 -73 0
-44 -73 0
71 73 74 0
-71 -74 0
-73 -74 0
-71 -73 75 0
71 -75 0
73 -75 0
74 75 76 0
-74 -76 0
-75 -76 0
69 -76 77 0
-69 -77 0
76 -77 0
77 75 78 0
-77 -78 0
-75 -78 0
-24 28 79 0
24 -79 0
-28 -79 0
79 29 80 0
-79 -80 0
-29 -80 0
44 -25 81 0
-44 -81 0
25 -81 0
81 45 82 0
-81 -82 0
-45 -82 0
80 82 83 0
-80 -83 0
-82 -83 0
-80 -82 84 0
80 -84 0
82 -84 0
83 84 85 0
-83 -85 0
-84 -85 0
78 -85 86 0
-78 -86 0
85 -86 0
86 84 87 0
-86 -87 0
-84 -87 0
-30 34 88 0
30 -88 0
-34 -88 0
88 35 89 0
-88 -89 0
-35 -89 0
45 -31 90 0
-45 -90 0
31 -90 0
90 46 91 0
-90 -91 0
-46 -91 0
89 91 92 0
-89 -92 0
-91 -92 0
-89 -91 93 0
89 -93 0
91 -93 0
92 93 94 0
-92 -94 0
-93 -94 0
87 -94 95 0
-87 -95 0
94 -95 0
95 93 96 0
-95 -96 0
-93 -96 0
40 38 97 0
-40 -97 0
-38 -97 0
36 -97 98 0
-36 -98 0
97 -98 0
-36 97 99 0
36 -99 0
-97 -99 0
98 99 100 0
-98 -100 0
-99 -100 0
-46 -37 101 0
46 -101 0
37 -101 0
101 47 102 0
-101 -102 0
-47 -102 0
100 -102 103 0
-100 -103 0
102 -103 0
-100 102 104 0
100 -104 0
-102 -104 0
103 104 105 0
-103 -105 0
-104 -105 0
96 -105 106 0
-96 -106 0
105 -106 0
106 104 107 0
-106 -107 0
-104 -107 0
50 107 108 0
-50 -108 0
-107 -108 0
-50 -107 109 0
50 -109 0
107 -109 0
108 109 110 0
-108 -110 0
-109 -110 0
110 -111 112 0
-110 -112 0
111 -112 0
51 58 113 0
-51 -113 0
-58 -113 0
113 59 114 0
-113 -114 0
-59 -114 0
114 1 115 0
-114 -115 0
-1 -115 0
-60 67 116 0
60 -116 0
-67 -116 0
116 68 117 0
-116 -117 0
-68 -117 0
-115 117 118 0
115 -118 0
-117 -118 0
-69 76 119 0
69 -119 0
-76 -119 0
119 77 120 0
-119 -120 0
-77 -120 0
118 -120 121 0
-118 -121 0
120 -121 0
-118 120 122 0
118 -122 0
-120 -122 0
121 122 123 0
-121 -123 0
-122 -123 0
115 -117 124 0
-115 -124 0
117 -124 0
124 118 125 0
-124 -125 0
-118 -125 0
-114 126 127 0
114 -127 0
-126 -127 0
127 115 128 0
-127 -128 0
-115 -128 0
114 -126 129 0
-114 -129 0
126 -129 0
130 -1 131 0
-130 -131 0
1 -131 0
129 -131 132 0
-129 -132 0
131 -132 0
-128 132 133 0
128 -133 0
-132 -133 0
-133 -134 135 0
133 -135 0
134 -135 0
125 135 136 0
-125 -136 0
-135 -136 0
133 134 137 0
-133 -137 0
-134 -137 0
136 137 138 0
-136 -138 0
-137 -138 0
138 139 140 0
-138 -140 0
-139 -140 0
-123 140 141 0
123 -141 0
-140 -141 0
-138 -139 142 0
138 -142 0
139 -142 0
141 142 143 0
-141 -143 0
-142 -143 0
-78 85 144 0
78 -144 0
-85 -144 0
144 86 145 0
-144 -145 0
-86 -145 0
122 -145 146 0
-122 -146 0
145 -146 0
-122 145 147 0
122 -147 0
-145 -147 0
146 147 148 0
-146 -148 0
-147 -148 0
148 149 150 0
-148 -150 0
-149 -150 0
143 150 151 0
-143 -151 0
-150 -151 0
-148 -149 152 0
148 -152 0
149 -152 0
151 152 153 0
-151 -153 0
-152 -153 0
-87 94 154 0
87 -154 0
-94 -154 0
154 95 155 0
-154 -155 0
-95 -155 0
147 -155 156 0
-147 -156 0
155 -156 0
-147 155 157 0
147 -157 0
-155 -157 0
156 157 158 0
-156 -158 0
-157 -158 0
-158 -159 160 0
158 -160 0
159 -160 0
-153 160 161 0
153 -161 0
-160 -161 0
158 159 162 0
-158 -162 0
-159 -162 0
161 162 163 0
-161 -163 0
-162 -163 0
-96 105 164 0
96 -164 0
-105 -164 0
164 106 165 0
-164 -165 0
-106 -165 0
157 -165 166 0
-157 -166 0
165 -166 0
-157 165 167 0
157 -167 0
-165 -167 0
166 167 168 0
-166 -168 0
-167 -168 0
168 169 170 0
-168 -170 0
-169 -170 0
-163 170 171 0
163 -171 0
-170 -171 0
-171 -167 172 0
171 -172 0
167 -172 0
-112 172 173 0
112 -173 0
-172 -173 0
167 169 174 0
-167 -174 0
-169 -174 0
174 166 175 0
-174 -175 0
-166 -175 0
-110 111 176 0
110 -176 0
-111 -176 0
175 176 177 0
-175 -177 0
-176 -177 0
177 172 178 0
-177 -178 0
-172 -178 0
176 -171 179 0
-176 -179 0
171 -179 0
178 179 180 0
-178 -180 0
-179 -180 0
173 180 181 0
-173 -181 0
-180 -181 0
181 0
